72
120
84	5
83	6
82	4
81	9
80	4
79	4
78	1
77	8
76	8
75	4
74	2
73	5
72	2
71	1
70	4
69	4
68	3
67	3
66	5
65	6
64	2
63	4
62	4
61	7
60	1
59	4
58	6
57	4
56	2
55	4
54	3
53	3
52	6
51	3
50	5
49	3
48	4
47	3
46	2
45	2
44	1
43	6
42	4
41	5
40	6
39	4
38	5
37	8
36	5
35	1
34	3
33	6
32	6
31	4
29	5
28	2
27	2
26	4
25	6
24	10
23	5
22	3
21	5
20	2
19	3
18	7
17	7
16	5
15	4
14	2
13	3
12	1
